/* Cplex Data generated on 2017-12-15 */

k = 70;

b = 35;

AtomicConstraints = {
	 <1, 36>,
	 <1, 14>,
	 <1, 15>,
	 <1, 41>,
	 <1, 40>,
	 <1, 39>,
	 <1, 38>,
	 <1, 16>,
	 <1, 17>,
	 <1, 18>,
	 <1, 46>,
	 <1, 47>,
	 <1, 48>,
	 <1, 19>,
	 <1, 20>,
	 <1, 21>,
	 <1, 22>,
	 <1, 23>,
	 <1, 53>,
	 <1, 54>,
	 <1, 25>,
	 <1, 26>,
	 <1, 59>,
	 <1, 27>,
	 <1, 28>,
	 <1, 63>,
	 <1, 29>,
	 <1, 62>,
	 <1, 30>,
	 <1, 31>,
	 <1, 32>,
	 <1, 33>,
	 <1, 34>,
	 <1, 56>,
	 <1, 69>,
	 <1, 68>,
	 <1, 49>,
	 <1, 60>,
	 <1, 58>,
	 <1, 45>,
	 <1, 57>,
	 <1, 44>,
	 <1, 66>,
	 <1, 37>,
	 <1, 42>,
	 <1, 64>,
	 <1, 50>,
	 <1, 55>,
	 <1, 61>,
	 <1, 67>,
	 <1, 52>,
	 <1, 51>,
	 <1, 43>,
	 <1, 35>,
	 <1, 65>,
	 <1, 70>,
	 <3, 1>,
	 <3, 2>,
	 <3, 5>,
	 <3, 36>,
	 <3, 14>,
	 <3, 15>,
	 <3, 41>,
	 <3, 40>,
	 <3, 39>,
	 <3, 38>,
	 <3, 16>,
	 <3, 17>,
	 <3, 18>,
	 <3, 46>,
	 <3, 47>,
	 <3, 48>,
	 <3, 19>,
	 <3, 20>,
	 <3, 21>,
	 <3, 22>,
	 <3, 23>,
	 <3, 24>,
	 <3, 53>,
	 <3, 54>,
	 <3, 25>,
	 <3, 26>,
	 <3, 59>,
	 <3, 27>,
	 <3, 28>,
	 <3, 63>,
	 <3, 29>,
	 <3, 62>,
	 <3, 30>,
	 <3, 31>,
	 <3, 32>,
	 <3, 33>,
	 <3, 34>,
	 <3, 56>,
	 <3, 69>,
	 <3, 68>,
	 <3, 49>,
	 <3, 60>,
	 <3, 58>,
	 <3, 45>,
	 <3, 57>,
	 <3, 44>,
	 <3, 66>,
	 <3, 37>,
	 <3, 42>,
	 <3, 64>,
	 <3, 50>,
	 <3, 55>,
	 <3, 61>,
	 <3, 67>,
	 <3, 52>,
	 <3, 51>,
	 <3, 43>,
	 <3, 35>,
	 <3, 65>,
	 <3, 70>,
	 <4, 1>,
	 <4, 2>,
	 <4, 5>,
	 <4, 10>,
	 <4, 36>,
	 <4, 14>,
	 <4, 15>,
	 <4, 41>,
	 <4, 40>,
	 <4, 39>,
	 <4, 38>,
	 <4, 16>,
	 <4, 17>,
	 <4, 18>,
	 <4, 46>,
	 <4, 47>,
	 <4, 48>,
	 <4, 19>,
	 <4, 20>,
	 <4, 21>,
	 <4, 22>,
	 <4, 23>,
	 <4, 24>,
	 <4, 53>,
	 <4, 54>,
	 <4, 25>,
	 <4, 26>,
	 <4, 59>,
	 <4, 27>,
	 <4, 63>,
	 <4, 29>,
	 <4, 62>,
	 <4, 30>,
	 <4, 31>,
	 <4, 32>,
	 <4, 33>,
	 <4, 34>,
	 <4, 56>,
	 <4, 69>,
	 <4, 68>,
	 <4, 49>,
	 <4, 60>,
	 <4, 58>,
	 <4, 45>,
	 <4, 57>,
	 <4, 44>,
	 <4, 66>,
	 <4, 37>,
	 <4, 42>,
	 <4, 64>,
	 <4, 50>,
	 <4, 55>,
	 <4, 61>,
	 <4, 67>,
	 <4, 52>,
	 <4, 51>,
	 <4, 43>,
	 <4, 35>,
	 <4, 65>,
	 <4, 70>,
	 <2, 36>,
	 <2, 14>,
	 <2, 15>,
	 <2, 41>,
	 <2, 40>,
	 <2, 39>,
	 <2, 38>,
	 <2, 16>,
	 <2, 17>,
	 <2, 18>,
	 <2, 46>,
	 <2, 47>,
	 <2, 48>,
	 <2, 19>,
	 <2, 20>,
	 <2, 21>,
	 <2, 22>,
	 <2, 23>,
	 <2, 24>,
	 <2, 53>,
	 <2, 54>,
	 <2, 25>,
	 <2, 26>,
	 <2, 59>,
	 <2, 27>,
	 <2, 63>,
	 <2, 29>,
	 <2, 62>,
	 <2, 30>,
	 <2, 31>,
	 <2, 32>,
	 <2, 33>,
	 <2, 34>,
	 <2, 56>,
	 <2, 69>,
	 <2, 68>,
	 <2, 49>,
	 <2, 60>,
	 <2, 58>,
	 <2, 45>,
	 <2, 57>,
	 <2, 44>,
	 <2, 66>,
	 <2, 37>,
	 <2, 42>,
	 <2, 64>,
	 <2, 50>,
	 <2, 55>,
	 <2, 61>,
	 <2, 67>,
	 <2, 52>,
	 <2, 51>,
	 <2, 43>,
	 <2, 35>,
	 <2, 65>,
	 <2, 70>,
	 <6, 2>,
	 <6, 5>,
	 <6, 10>,
	 <6, 11>,
	 <6, 14>,
	 <6, 15>,
	 <6, 41>,
	 <6, 40>,
	 <6, 39>,
	 <6, 38>,
	 <6, 16>,
	 <6, 17>,
	 <6, 18>,
	 <6, 46>,
	 <6, 47>,
	 <6, 48>,
	 <6, 19>,
	 <6, 20>,
	 <6, 21>,
	 <6, 22>,
	 <6, 23>,
	 <6, 24>,
	 <6, 53>,
	 <6, 54>,
	 <6, 25>,
	 <6, 26>,
	 <6, 59>,
	 <6, 27>,
	 <6, 63>,
	 <6, 29>,
	 <6, 62>,
	 <6, 30>,
	 <6, 31>,
	 <6, 32>,
	 <6, 33>,
	 <6, 34>,
	 <6, 56>,
	 <6, 69>,
	 <6, 68>,
	 <6, 49>,
	 <6, 60>,
	 <6, 58>,
	 <6, 45>,
	 <6, 57>,
	 <6, 44>,
	 <6, 66>,
	 <6, 37>,
	 <6, 42>,
	 <6, 64>,
	 <6, 50>,
	 <6, 55>,
	 <6, 61>,
	 <6, 67>,
	 <6, 52>,
	 <6, 51>,
	 <6, 43>,
	 <6, 35>,
	 <6, 65>,
	 <6, 70>,
	 <7, 5>,
	 <7, 10>,
	 <7, 11>,
	 <7, 12>,
	 <7, 40>,
	 <7, 39>,
	 <7, 38>,
	 <7, 16>,
	 <7, 17>,
	 <7, 18>,
	 <7, 46>,
	 <7, 47>,
	 <7, 48>,
	 <7, 19>,
	 <7, 20>,
	 <7, 21>,
	 <7, 22>,
	 <7, 23>,
	 <7, 24>,
	 <7, 53>,
	 <7, 54>,
	 <7, 25>,
	 <7, 26>,
	 <7, 59>,
	 <7, 27>,
	 <7, 63>,
	 <7, 29>,
	 <7, 62>,
	 <7, 30>,
	 <7, 31>,
	 <7, 32>,
	 <7, 33>,
	 <7, 34>,
	 <7, 56>,
	 <7, 69>,
	 <7, 68>,
	 <7, 49>,
	 <7, 60>,
	 <7, 58>,
	 <7, 45>,
	 <7, 57>,
	 <7, 44>,
	 <7, 66>,
	 <7, 37>,
	 <7, 42>,
	 <7, 64>,
	 <7, 50>,
	 <7, 55>,
	 <7, 61>,
	 <7, 67>,
	 <7, 52>,
	 <7, 51>,
	 <7, 43>,
	 <7, 35>,
	 <7, 65>,
	 <7, 70>,
	 <8, 10>,
	 <8, 11>,
	 <8, 12>,
	 <8, 13>,
	 <8, 38>,
	 <8, 16>,
	 <8, 17>,
	 <8, 18>,
	 <8, 46>,
	 <8, 47>,
	 <8, 48>,
	 <8, 19>,
	 <8, 20>,
	 <8, 21>,
	 <8, 22>,
	 <8, 23>,
	 <8, 24>,
	 <8, 53>,
	 <8, 54>,
	 <8, 25>,
	 <8, 59>,
	 <8, 27>,
	 <8, 63>,
	 <8, 29>,
	 <8, 62>,
	 <8, 30>,
	 <8, 31>,
	 <8, 32>,
	 <8, 33>,
	 <8, 34>,
	 <8, 56>,
	 <8, 69>,
	 <8, 68>,
	 <8, 49>,
	 <8, 60>,
	 <8, 58>,
	 <8, 45>,
	 <8, 57>,
	 <8, 44>,
	 <8, 66>,
	 <8, 37>,
	 <8, 42>,
	 <8, 64>,
	 <8, 50>,
	 <8, 55>,
	 <8, 61>,
	 <8, 67>,
	 <8, 52>,
	 <8, 51>,
	 <8, 43>,
	 <8, 35>,
	 <8, 65>,
	 <8, 70>,
	 <9, 11>,
	 <9, 12>,
	 <9, 13>,
	 <9, 16>,
	 <9, 17>,
	 <9, 18>,
	 <9, 46>,
	 <9, 47>,
	 <9, 48>,
	 <9, 19>,
	 <9, 20>,
	 <9, 21>,
	 <9, 22>,
	 <9, 23>,
	 <9, 24>,
	 <9, 53>,
	 <9, 54>,
	 <9, 25>,
	 <9, 27>,
	 <9, 63>,
	 <9, 29>,
	 <9, 62>,
	 <9, 30>,
	 <9, 31>,
	 <9, 32>,
	 <9, 33>,
	 <9, 34>,
	 <9, 56>,
	 <9, 69>,
	 <9, 68>,
	 <9, 49>,
	 <9, 60>,
	 <9, 58>,
	 <9, 45>,
	 <9, 57>,
	 <9, 44>,
	 <9, 66>,
	 <9, 37>,
	 <9, 42>,
	 <9, 64>,
	 <9, 50>,
	 <9, 55>,
	 <9, 61>,
	 <9, 67>,
	 <9, 52>,
	 <9, 51>,
	 <9, 43>,
	 <9, 35>,
	 <9, 65>,
	 <9, 70>,
	 <5, 14>,
	 <5, 15>,
	 <5, 41>,
	 <5, 40>,
	 <5, 39>,
	 <5, 38>,
	 <5, 16>,
	 <5, 17>,
	 <5, 18>,
	 <5, 46>,
	 <5, 47>,
	 <5, 48>,
	 <5, 19>,
	 <5, 20>,
	 <5, 21>,
	 <5, 22>,
	 <5, 23>,
	 <5, 24>,
	 <5, 53>,
	 <5, 54>,
	 <5, 25>,
	 <5, 26>,
	 <5, 59>,
	 <5, 27>,
	 <5, 63>,
	 <5, 29>,
	 <5, 62>,
	 <5, 30>,
	 <5, 31>,
	 <5, 32>,
	 <5, 33>,
	 <5, 34>,
	 <5, 56>,
	 <5, 69>,
	 <5, 68>,
	 <5, 49>,
	 <5, 60>,
	 <5, 58>,
	 <5, 45>,
	 <5, 57>,
	 <5, 44>,
	 <5, 66>,
	 <5, 37>,
	 <5, 42>,
	 <5, 64>,
	 <5, 50>,
	 <5, 55>,
	 <5, 61>,
	 <5, 67>,
	 <5, 52>,
	 <5, 51>,
	 <5, 43>,
	 <5, 35>,
	 <5, 65>,
	 <5, 70>,
	 <10, 40>,
	 <10, 39>,
	 <10, 38>,
	 <10, 16>,
	 <10, 17>,
	 <10, 18>,
	 <10, 46>,
	 <10, 47>,
	 <10, 48>,
	 <10, 19>,
	 <10, 20>,
	 <10, 21>,
	 <10, 22>,
	 <10, 23>,
	 <10, 24>,
	 <10, 53>,
	 <10, 54>,
	 <10, 25>,
	 <10, 26>,
	 <10, 59>,
	 <10, 27>,
	 <10, 63>,
	 <10, 29>,
	 <10, 62>,
	 <10, 30>,
	 <10, 31>,
	 <10, 32>,
	 <10, 33>,
	 <10, 34>,
	 <10, 56>,
	 <10, 69>,
	 <10, 68>,
	 <10, 49>,
	 <10, 60>,
	 <10, 58>,
	 <10, 45>,
	 <10, 57>,
	 <10, 44>,
	 <10, 66>,
	 <10, 37>,
	 <10, 42>,
	 <10, 64>,
	 <10, 50>,
	 <10, 55>,
	 <10, 61>,
	 <10, 67>,
	 <10, 52>,
	 <10, 51>,
	 <10, 43>,
	 <10, 35>,
	 <10, 65>,
	 <10, 70>,
	 <11, 38>,
	 <11, 16>,
	 <11, 17>,
	 <11, 18>,
	 <11, 46>,
	 <11, 47>,
	 <11, 48>,
	 <11, 19>,
	 <11, 20>,
	 <11, 21>,
	 <11, 22>,
	 <11, 23>,
	 <11, 24>,
	 <11, 53>,
	 <11, 54>,
	 <11, 25>,
	 <11, 59>,
	 <11, 27>,
	 <11, 63>,
	 <11, 29>,
	 <11, 62>,
	 <11, 30>,
	 <11, 31>,
	 <11, 32>,
	 <11, 33>,
	 <11, 34>,
	 <11, 56>,
	 <11, 69>,
	 <11, 68>,
	 <11, 49>,
	 <11, 60>,
	 <11, 58>,
	 <11, 45>,
	 <11, 57>,
	 <11, 44>,
	 <11, 66>,
	 <11, 37>,
	 <11, 42>,
	 <11, 64>,
	 <11, 50>,
	 <11, 55>,
	 <11, 61>,
	 <11, 67>,
	 <11, 52>,
	 <11, 51>,
	 <11, 43>,
	 <11, 35>,
	 <11, 65>,
	 <11, 70>,
	 <12, 16>,
	 <12, 17>,
	 <12, 18>,
	 <12, 46>,
	 <12, 47>,
	 <12, 48>,
	 <12, 19>,
	 <12, 20>,
	 <12, 21>,
	 <12, 22>,
	 <12, 23>,
	 <12, 24>,
	 <12, 53>,
	 <12, 54>,
	 <12, 25>,
	 <12, 27>,
	 <12, 63>,
	 <12, 29>,
	 <12, 62>,
	 <12, 30>,
	 <12, 31>,
	 <12, 32>,
	 <12, 33>,
	 <12, 34>,
	 <12, 56>,
	 <12, 69>,
	 <12, 68>,
	 <12, 49>,
	 <12, 60>,
	 <12, 58>,
	 <12, 45>,
	 <12, 57>,
	 <12, 44>,
	 <12, 66>,
	 <12, 37>,
	 <12, 42>,
	 <12, 64>,
	 <12, 50>,
	 <12, 55>,
	 <12, 61>,
	 <12, 67>,
	 <12, 52>,
	 <12, 51>,
	 <12, 43>,
	 <12, 35>,
	 <12, 65>,
	 <12, 70>,
	 <13, 16>,
	 <13, 17>,
	 <13, 47>,
	 <13, 48>,
	 <13, 19>,
	 <13, 20>,
	 <13, 21>,
	 <13, 22>,
	 <13, 23>,
	 <13, 24>,
	 <13, 53>,
	 <13, 54>,
	 <13, 25>,
	 <13, 63>,
	 <13, 29>,
	 <13, 62>,
	 <13, 30>,
	 <13, 31>,
	 <13, 32>,
	 <13, 33>,
	 <13, 34>,
	 <13, 56>,
	 <13, 69>,
	 <13, 68>,
	 <13, 49>,
	 <13, 60>,
	 <13, 58>,
	 <13, 45>,
	 <13, 57>,
	 <13, 44>,
	 <13, 66>,
	 <13, 37>,
	 <13, 42>,
	 <13, 64>,
	 <13, 50>,
	 <13, 55>,
	 <13, 61>,
	 <13, 67>,
	 <13, 52>,
	 <13, 51>,
	 <13, 43>,
	 <13, 35>,
	 <13, 65>,
	 <13, 70>,
	 <36, 58>,
	 <36, 45>,
	 <36, 57>,
	 <36, 44>,
	 <36, 66>,
	 <36, 37>,
	 <36, 42>,
	 <36, 64>,
	 <36, 50>,
	 <36, 55>,
	 <36, 61>,
	 <36, 67>,
	 <36, 52>,
	 <15, 36>,
	 <15, 14>,
	 <15, 40>,
	 <15, 58>,
	 <15, 45>,
	 <15, 57>,
	 <15, 44>,
	 <15, 66>,
	 <15, 37>,
	 <15, 42>,
	 <15, 64>,
	 <15, 50>,
	 <15, 55>,
	 <15, 61>,
	 <15, 67>,
	 <15, 52>,
	 <15, 65>,
	 <41, 36>,
	 <41, 14>,
	 <41, 40>,
	 <41, 18>,
	 <41, 58>,
	 <41, 45>,
	 <41, 57>,
	 <41, 44>,
	 <41, 66>,
	 <41, 37>,
	 <41, 42>,
	 <41, 64>,
	 <41, 50>,
	 <41, 55>,
	 <41, 61>,
	 <41, 67>,
	 <41, 52>,
	 <41, 65>,
	 <41, 70>,
	 <14, 58>,
	 <14, 45>,
	 <14, 57>,
	 <14, 44>,
	 <14, 66>,
	 <14, 37>,
	 <14, 42>,
	 <14, 64>,
	 <14, 50>,
	 <14, 55>,
	 <14, 61>,
	 <14, 67>,
	 <14, 52>,
	 <39, 14>,
	 <39, 40>,
	 <39, 18>,
	 <39, 46>,
	 <39, 58>,
	 <39, 45>,
	 <39, 57>,
	 <39, 44>,
	 <39, 66>,
	 <39, 37>,
	 <39, 42>,
	 <39, 64>,
	 <39, 50>,
	 <39, 55>,
	 <39, 61>,
	 <39, 67>,
	 <39, 52>,
	 <39, 51>,
	 <39, 65>,
	 <39, 70>,
	 <38, 40>,
	 <38, 18>,
	 <38, 46>,
	 <38, 47>,
	 <38, 58>,
	 <38, 45>,
	 <38, 57>,
	 <38, 44>,
	 <38, 66>,
	 <38, 37>,
	 <38, 42>,
	 <38, 64>,
	 <38, 50>,
	 <38, 55>,
	 <38, 61>,
	 <38, 67>,
	 <38, 52>,
	 <38, 51>,
	 <38, 43>,
	 <38, 65>,
	 <38, 70>,
	 <16, 18>,
	 <16, 46>,
	 <16, 47>,
	 <16, 48>,
	 <16, 58>,
	 <16, 45>,
	 <16, 57>,
	 <16, 44>,
	 <16, 66>,
	 <16, 37>,
	 <16, 42>,
	 <16, 64>,
	 <16, 50>,
	 <16, 55>,
	 <16, 61>,
	 <16, 67>,
	 <16, 52>,
	 <16, 51>,
	 <16, 43>,
	 <16, 35>,
	 <16, 65>,
	 <16, 70>,
	 <17, 46>,
	 <17, 47>,
	 <17, 48>,
	 <17, 19>,
	 <17, 58>,
	 <17, 45>,
	 <17, 57>,
	 <17, 44>,
	 <17, 66>,
	 <17, 37>,
	 <17, 42>,
	 <17, 64>,
	 <17, 50>,
	 <17, 55>,
	 <17, 61>,
	 <17, 67>,
	 <17, 52>,
	 <17, 51>,
	 <17, 43>,
	 <17, 35>,
	 <17, 65>,
	 <17, 70>,
	 <40, 58>,
	 <40, 45>,
	 <40, 57>,
	 <40, 44>,
	 <40, 66>,
	 <40, 37>,
	 <40, 42>,
	 <40, 64>,
	 <40, 50>,
	 <40, 55>,
	 <40, 61>,
	 <40, 67>,
	 <40, 52>,
	 <40, 65>,
	 <18, 58>,
	 <18, 45>,
	 <18, 57>,
	 <18, 44>,
	 <18, 66>,
	 <18, 37>,
	 <18, 42>,
	 <18, 64>,
	 <18, 50>,
	 <18, 55>,
	 <18, 61>,
	 <18, 67>,
	 <18, 52>,
	 <18, 65>,
	 <18, 70>,
	 <46, 58>,
	 <46, 45>,
	 <46, 57>,
	 <46, 44>,
	 <46, 66>,
	 <46, 37>,
	 <46, 42>,
	 <46, 64>,
	 <46, 50>,
	 <46, 55>,
	 <46, 61>,
	 <46, 67>,
	 <46, 52>,
	 <46, 51>,
	 <46, 65>,
	 <46, 70>,
	 <47, 58>,
	 <47, 45>,
	 <47, 57>,
	 <47, 44>,
	 <47, 66>,
	 <47, 37>,
	 <47, 42>,
	 <47, 64>,
	 <47, 50>,
	 <47, 55>,
	 <47, 61>,
	 <47, 67>,
	 <47, 52>,
	 <47, 51>,
	 <47, 43>,
	 <47, 65>,
	 <47, 70>,
	 <48, 58>,
	 <48, 45>,
	 <48, 57>,
	 <48, 44>,
	 <48, 66>,
	 <48, 37>,
	 <48, 42>,
	 <48, 64>,
	 <48, 50>,
	 <48, 55>,
	 <48, 61>,
	 <48, 67>,
	 <48, 52>,
	 <48, 51>,
	 <48, 43>,
	 <48, 35>,
	 <48, 65>,
	 <48, 70>,
	 <19, 58>,
	 <19, 45>,
	 <19, 57>,
	 <19, 44>,
	 <19, 66>,
	 <19, 37>,
	 <19, 42>,
	 <19, 64>,
	 <19, 50>,
	 <19, 55>,
	 <19, 61>,
	 <19, 67>,
	 <19, 52>,
	 <19, 51>,
	 <19, 43>,
	 <19, 35>,
	 <19, 65>,
	 <19, 70>,
	 <20, 45>,
	 <20, 57>,
	 <20, 44>,
	 <20, 66>,
	 <20, 37>,
	 <20, 42>,
	 <20, 64>,
	 <20, 50>,
	 <20, 55>,
	 <20, 61>,
	 <20, 67>,
	 <20, 52>,
	 <20, 51>,
	 <20, 43>,
	 <20, 35>,
	 <20, 65>,
	 <20, 70>,
	 <21, 53>,
	 <21, 54>,
	 <21, 63>,
	 <21, 29>,
	 <21, 62>,
	 <21, 30>,
	 <21, 31>,
	 <21, 32>,
	 <21, 33>,
	 <21, 34>,
	 <21, 64>,
	 <21, 50>,
	 <21, 55>,
	 <21, 61>,
	 <21, 67>,
	 <21, 52>,
	 <21, 51>,
	 <21, 43>,
	 <21, 35>,
	 <21, 65>,
	 <21, 70>,
	 <22, 53>,
	 <22, 54>,
	 <22, 63>,
	 <22, 29>,
	 <22, 62>,
	 <22, 30>,
	 <22, 31>,
	 <22, 32>,
	 <22, 33>,
	 <22, 34>,
	 <22, 64>,
	 <22, 50>,
	 <22, 55>,
	 <22, 61>,
	 <22, 67>,
	 <22, 52>,
	 <22, 51>,
	 <22, 43>,
	 <22, 35>,
	 <22, 65>,
	 <22, 70>,
	 <23, 54>,
	 <23, 63>,
	 <23, 29>,
	 <23, 62>,
	 <23, 30>,
	 <23, 31>,
	 <23, 32>,
	 <23, 33>,
	 <23, 34>,
	 <23, 55>,
	 <23, 61>,
	 <23, 67>,
	 <23, 52>,
	 <23, 51>,
	 <23, 43>,
	 <23, 35>,
	 <23, 65>,
	 <23, 70>,
	 <24, 63>,
	 <24, 29>,
	 <24, 62>,
	 <24, 30>,
	 <24, 31>,
	 <24, 32>,
	 <24, 33>,
	 <24, 34>,
	 <24, 61>,
	 <24, 67>,
	 <24, 52>,
	 <24, 51>,
	 <24, 43>,
	 <24, 35>,
	 <24, 65>,
	 <24, 70>,
	 <53, 63>,
	 <53, 29>,
	 <53, 62>,
	 <53, 30>,
	 <53, 31>,
	 <53, 32>,
	 <53, 33>,
	 <53, 34>,
	 <53, 64>,
	 <53, 50>,
	 <53, 55>,
	 <53, 61>,
	 <53, 67>,
	 <53, 52>,
	 <53, 51>,
	 <53, 43>,
	 <53, 35>,
	 <53, 65>,
	 <53, 70>,
	 <54, 63>,
	 <54, 29>,
	 <54, 62>,
	 <54, 30>,
	 <54, 31>,
	 <54, 32>,
	 <54, 33>,
	 <54, 34>,
	 <54, 64>,
	 <54, 50>,
	 <54, 55>,
	 <54, 61>,
	 <54, 67>,
	 <54, 52>,
	 <54, 51>,
	 <54, 43>,
	 <54, 35>,
	 <54, 65>,
	 <54, 70>,
	 <25, 19>,
	 <25, 20>,
	 <25, 56>,
	 <25, 69>,
	 <25, 68>,
	 <25, 49>,
	 <25, 60>,
	 <25, 45>,
	 <25, 57>,
	 <25, 44>,
	 <25, 66>,
	 <25, 37>,
	 <25, 42>,
	 <25, 64>,
	 <25, 50>,
	 <25, 55>,
	 <25, 61>,
	 <25, 67>,
	 <25, 52>,
	 <25, 51>,
	 <25, 43>,
	 <25, 35>,
	 <25, 65>,
	 <25, 70>,
	 <26, 14>,
	 <26, 15>,
	 <26, 41>,
	 <26, 40>,
	 <26, 39>,
	 <26, 38>,
	 <26, 16>,
	 <26, 17>,
	 <26, 18>,
	 <26, 46>,
	 <26, 47>,
	 <26, 48>,
	 <26, 19>,
	 <26, 20>,
	 <26, 56>,
	 <26, 69>,
	 <26, 68>,
	 <26, 49>,
	 <26, 60>,
	 <26, 58>,
	 <26, 45>,
	 <26, 57>,
	 <26, 44>,
	 <26, 66>,
	 <26, 37>,
	 <26, 42>,
	 <26, 64>,
	 <26, 50>,
	 <26, 55>,
	 <26, 61>,
	 <26, 67>,
	 <26, 52>,
	 <26, 51>,
	 <26, 43>,
	 <26, 35>,
	 <26, 65>,
	 <26, 70>,
	 <59, 14>,
	 <59, 40>,
	 <59, 39>,
	 <59, 38>,
	 <59, 16>,
	 <59, 17>,
	 <59, 18>,
	 <59, 46>,
	 <59, 47>,
	 <59, 48>,
	 <59, 19>,
	 <59, 20>,
	 <59, 56>,
	 <59, 69>,
	 <59, 68>,
	 <59, 49>,
	 <59, 60>,
	 <59, 58>,
	 <59, 45>,
	 <59, 57>,
	 <59, 44>,
	 <59, 66>,
	 <59, 37>,
	 <59, 42>,
	 <59, 64>,
	 <59, 50>,
	 <59, 55>,
	 <59, 61>,
	 <59, 67>,
	 <59, 52>,
	 <59, 51>,
	 <59, 43>,
	 <59, 35>,
	 <59, 65>,
	 <59, 70>,
	 <27, 38>,
	 <27, 16>,
	 <27, 17>,
	 <27, 18>,
	 <27, 46>,
	 <27, 47>,
	 <27, 48>,
	 <27, 19>,
	 <27, 20>,
	 <27, 56>,
	 <27, 69>,
	 <27, 68>,
	 <27, 49>,
	 <27, 60>,
	 <27, 58>,
	 <27, 45>,
	 <27, 57>,
	 <27, 44>,
	 <27, 66>,
	 <27, 37>,
	 <27, 42>,
	 <27, 64>,
	 <27, 50>,
	 <27, 55>,
	 <27, 61>,
	 <27, 67>,
	 <27, 52>,
	 <27, 51>,
	 <27, 43>,
	 <27, 35>,
	 <27, 65>,
	 <27, 70>,
	 <28, 36>,
	 <28, 14>,
	 <28, 15>,
	 <28, 41>,
	 <28, 40>,
	 <28, 39>,
	 <28, 38>,
	 <28, 16>,
	 <28, 17>,
	 <28, 18>,
	 <28, 46>,
	 <28, 47>,
	 <28, 48>,
	 <28, 19>,
	 <28, 20>,
	 <28, 56>,
	 <28, 69>,
	 <28, 68>,
	 <28, 49>,
	 <28, 60>,
	 <28, 58>,
	 <28, 45>,
	 <28, 57>,
	 <28, 44>,
	 <28, 66>,
	 <28, 37>,
	 <28, 42>,
	 <28, 64>,
	 <28, 50>,
	 <28, 55>,
	 <28, 61>,
	 <28, 67>,
	 <28, 52>,
	 <28, 51>,
	 <28, 43>,
	 <28, 35>,
	 <28, 65>,
	 <28, 70>,
	 <29, 67>,
	 <29, 52>,
	 <29, 51>,
	 <29, 43>,
	 <29, 35>,
	 <29, 65>,
	 <29, 70>,
	 <63, 34>,
	 <63, 61>,
	 <63, 67>,
	 <63, 52>,
	 <63, 51>,
	 <63, 43>,
	 <63, 35>,
	 <63, 65>,
	 <63, 70>,
	 <62, 29>,
	 <62, 34>,
	 <62, 61>,
	 <62, 67>,
	 <62, 52>,
	 <62, 51>,
	 <62, 43>,
	 <62, 35>,
	 <62, 65>,
	 <62, 70>,
	 <30, 29>,
	 <30, 34>,
	 <30, 61>,
	 <30, 67>,
	 <30, 52>,
	 <30, 51>,
	 <30, 43>,
	 <30, 35>,
	 <30, 65>,
	 <30, 70>,
	 <31, 29>,
	 <31, 67>,
	 <31, 52>,
	 <31, 51>,
	 <31, 43>,
	 <31, 35>,
	 <31, 65>,
	 <31, 70>,
	 <32, 29>,
	 <32, 67>,
	 <32, 51>,
	 <32, 43>,
	 <32, 35>,
	 <32, 65>,
	 <32, 70>,
	 <33, 51>,
	 <33, 43>,
	 <33, 35>,
	 <33, 65>,
	 <33, 70>,
	 <34, 61>,
	 <34, 67>,
	 <34, 52>,
	 <34, 51>,
	 <34, 43>,
	 <34, 35>,
	 <34, 65>,
	 <34, 70>,
	 <56, 48>,
	 <56, 19>,
	 <56, 20>,
	 <56, 58>,
	 <56, 45>,
	 <56, 57>,
	 <56, 44>,
	 <56, 66>,
	 <56, 37>,
	 <56, 42>,
	 <56, 64>,
	 <56, 50>,
	 <56, 55>,
	 <56, 61>,
	 <56, 67>,
	 <56, 52>,
	 <56, 51>,
	 <56, 43>,
	 <56, 35>,
	 <56, 65>,
	 <56, 70>,
	 <69, 19>,
	 <69, 20>,
	 <69, 57>,
	 <69, 44>,
	 <69, 66>,
	 <69, 37>,
	 <69, 42>,
	 <69, 64>,
	 <69, 50>,
	 <69, 55>,
	 <69, 61>,
	 <69, 67>,
	 <69, 52>,
	 <69, 51>,
	 <69, 43>,
	 <69, 35>,
	 <69, 65>,
	 <69, 70>,
	 <68, 20>,
	 <68, 57>,
	 <68, 44>,
	 <68, 66>,
	 <68, 37>,
	 <68, 42>,
	 <68, 64>,
	 <68, 50>,
	 <68, 55>,
	 <68, 61>,
	 <68, 67>,
	 <68, 52>,
	 <68, 51>,
	 <68, 43>,
	 <68, 35>,
	 <68, 65>,
	 <68, 70>,
	 <49, 66>,
	 <49, 37>,
	 <49, 42>,
	 <49, 64>,
	 <49, 50>,
	 <49, 55>,
	 <49, 61>,
	 <49, 67>,
	 <49, 52>,
	 <49, 51>,
	 <49, 43>,
	 <49, 35>,
	 <49, 65>,
	 <49, 70>,
	 <60, 66>,
	 <60, 37>,
	 <60, 42>,
	 <60, 64>,
	 <60, 50>,
	 <60, 55>,
	 <60, 61>,
	 <60, 67>,
	 <60, 52>,
	 <60, 51>,
	 <60, 43>,
	 <60, 35>,
	 <60, 65>,
	 <60, 70>,
	 <61, 52>,
	 <67, 52>,
	 <43, 51>,
	 <43, 65>,
	 <43, 70>,
	 <35, 51>,
	 <35, 70>,
	 }; 

SoftAtomicConstraints = {
	 <1, 2>,
	 <3, 4>,
	 <2, 5>,
	 <4, 6>,
	 <6, 7>,
	 <7, 8>,
	 <8, 9>,
	 <5, 10>,
	 <10, 11>,
	 <11, 12>,
	 <12, 13>,
	 <36, 14>,
	 <38, 16>,
	 <16, 17>,
	 <40, 18>,
	 <48, 19>,
	 <19, 20>,
	 <21, 22>,
	 <22, 23>,
	 <23, 24>,
	 <28, 25>,
	 <59, 27>,
	 <34, 29>,
	 <62, 30>,
	 <30, 31>,
	 <31, 32>,
	 <32, 33>,
	 <43, 35>,
	 <39, 38>,
	 <41, 39>,
	 <14, 40>,
	 <15, 41>,
	 <37, 42>,
	 <67, 43>,
	 <57, 44>,
	 <58, 45>,
	 <18, 46>,
	 <46, 47>,
	 <47, 48>,
	 <68, 49>,
	 <64, 50>,
	 <70, 51>,
	 <66, 52>,
	 <53, 54>,
	 <50, 55>,
	 <45, 57>,
	 <26, 59>,
	 <49, 60>,
	 <55, 61>,
	 <63, 62>,
	 <42, 64>,
	 <52, 65>,
	 <44, 66>,
	 <61, 67>,
	 <69, 68>,
	 <56, 69>,
	 <65, 70>,
	 }; 

DisjunctiveConstraints = {
	 <1, 50, 1, 15>,
	 <3, 36, 3, 1>,
	 <3, 50, 3, 15>,
	 <4, 3, 4, 6>,
	 <4, 41, 4, 6>,
	 <4, 49, 4, 14>,
	 <4, 37, 4, 2>,
	 <4, 50, 4, 15>,
	 <2, 1, 2, 5>,
	 <2, 41, 2, 6>,
	 <2, 49, 2, 14>,
	 <2, 50, 2, 15>,
	 <6, 4, 6, 7>,
	 <6, 39, 6, 4>,
	 <6, 40, 6, 5>,
	 <6, 49, 6, 14>,
	 <6, 61, 6, 26>,
	 <7, 6, 7, 8>,
	 <7, 38, 7, 3>,
	 <7, 18, 7, 53>,
	 <7, 24, 7, 59>,
	 <7, 45, 7, 10>,
	 <8, 7, 8, 9>,
	 <8, 18, 8, 53>,
	 <8, 46, 8, 11>,
	 <8, 62, 8, 27>,
	 <9, 47, 9, 12>,
	 <5, 2, 5, 10>,
	 <5, 39, 5, 4>,
	 <5, 61, 5, 26>,
	 <10, 5, 10, 11>,
	 <10, 38, 10, 3>,
	 <10, 18, 10, 53>,
	 <10, 24, 10, 59>,
	 <11, 10, 11, 12>,
	 <11, 18, 11, 53>,
	 <11, 62, 11, 27>,
	 <12, 11, 12, 13>,
	 <13, 58, 13, 23>,
	 <13, 45, 13, 10>,
	 <13, 52, 13, 17>,
	 <13, 51, 13, 16>,
	 <15, 36, 15, 1>,
	 <41, 15, 41, 39>,
	 <41, 49, 41, 14>,
	 <14, 36, 14, 40>,
	 <39, 41, 39, 38>,
	 <39, 40, 39, 5>,
	 <38, 39, 38, 16>,
	 <38, 18, 38, 53>,
	 <16, 38, 16, 17>,
	 <16, 46, 16, 11>,
	 <17, 47, 17, 12>,
	 <40, 14, 40, 18>,
	 <18, 40, 18, 46>,
	 <46, 18, 46, 47>,
	 <47, 46, 47, 48>,
	 <48, 47, 48, 19>,
	 <48, 58, 48, 23>,
	 <48, 45, 48, 10>,
	 <19, 48, 19, 20>,
	 <19, 45, 19, 10>,
	 <20, 57, 20, 22>,
	 <20, 44, 20, 9>,
	 <21, 18, 21, 53>,
	 <21, 64, 21, 29>,
	 <21, 50, 21, 15>,
	 <22, 19, 22, 54>,
	 <22, 21, 22, 23>,
	 <22, 55, 22, 20>,
	 <23, 22, 23, 24>,
	 <53, 64, 53, 29>,
	 <53, 50, 53, 15>,
	 <54, 55, 54, 20>,
	 <25, 19, 25, 54>,
	 <25, 56, 25, 21>,
	 <25, 57, 25, 22>,
	 <25, 55, 25, 20>,
	 <26, 41, 26, 6>,
	 <26, 39, 26, 4>,
	 <26, 40, 26, 5>,
	 <26, 49, 26, 14>,
	 <59, 38, 59, 3>,
	 <59, 40, 59, 5>,
	 <59, 18, 59, 53>,
	 <59, 26, 59, 27>,
	 <27, 18, 27, 53>,
	 <27, 46, 27, 11>,
	 <62, 63, 62, 30>,
	 <62, 69, 62, 34>,
	 <62, 61, 62, 26>,
	 <30, 62, 30, 31>,
	 <30, 52, 30, 17>,
	 <31, 30, 31, 32>,
	 <31, 64, 31, 29>,
	 <32, 31, 32, 33>,
	 <34, 61, 34, 26>,
	 <56, 19, 56, 54>,
	 <56, 57, 56, 22>,
	 <69, 56, 69, 68>,
	 <69, 57, 69, 22>,
	 <69, 44, 69, 9>,
	 <69, 55, 69, 20>,
	 <68, 69, 68, 49>,
	 <49, 68, 49, 60>,
	 <49, 66, 49, 31>,
	 <45, 58, 45, 57>,
	 <57, 45, 57, 44>,
	 <44, 57, 44, 66>,
	 <42, 37, 42, 64>,
	 <64, 42, 64, 50>,
	 <50, 64, 50, 55>,
	 <43, 70, 43, 35>,
	 <35, 51, 35, 16>,
	 <70, 65, 70, 51>,
	 }; 

DirectSuccessors = {
	1,
	2,
	3,
	4,
	5,
	6,
	7,
	8,
	9,
	10,
	11,
	12,
	13,
	36,
	14,
	15,
	41,
	40,
	39,
	38,
	16,
	17,
	18,
	46,
	47,
	48,
	19,
	20,
	21,
	22,
	23,
	24,
	53,
	54,
	25,
	26,
	59,
	27,
	28,
	63,
	29,
	62,
	30,
	31,
	32,
	33,
	34,
	56,
	69,
	68,
	49,
	60,
	58,
	45,
	57,
	44,
	66,
	37,
	42,
	64,
	50,
	55,
	61,
	67,
	52,
	51,
	43,
	35,
	65,
	70,
	 }; 

